#
#
#
#
#
clear
##### PRE-AMBLE #####
dimension		3
boundary		p p p
units			metal
atom_style		atomic
neighbor		1.0 bin
neigh_modify	every 1 delay 2 check yes

# Interatomic potential
pair_style		eam/alloy
pair_coeff		* * Fe_Ack.eam Fe Fe Fe Fe Fe

